(declare-const a Real)
(declare-const b Real)
(declare-const c Real)
(assert (= (* a b c) 1))
(assert (> a 0))
(assert (> b 0))
(assert (> c 0))
(assert (not (<= (+ (* -3534692 (pow b 4)) (* -2711396 (pow a 4)) (* -10616832 (pow a (/ 4 3)) (pow b (/ 8 3))) (* 416232 (pow a 2) (pow b 2)) (* 3861104 b (pow a 3)) (* 12585584 a (pow b 3))) 0)))
(check-sat)
(get-model)
(exit)